<?xml version = "1.0" standalone="yes"?>
<!-- This file has been generated by DOcplex version 2.23.222  -->
<CPLEXSolution version="1.0">
 <header
   problemName="CVRP"
   objectiveValue="17524.2"
  />
 <variables>
  <variable name="x_0_2" index="1" value="1.00000"/>
  <variable name="x_0_4" index="3" value="1.00000"/>
  <variable name="x_0_9" index="8" value="1.00000"/>
  <variable name="x_0_10" index="9" value="1.00000"/>
  <variable name="x_0_11" index="10" value="1.00000"/>
  <variable name="x_0_14" index="13" value="1.00000"/>
  <variable name="x_0_15" index="14" value="1.00000"/>
  <variable name="x_0_19" index="18" value="1.00000"/>
  <variable name="x_0_20" index="19" value="1.00000"/>
  <variable name="x_0_21" index="20" value="1.00000"/>
  <variable name="x_0_22" index="21" value="1.00000"/>
  <variable name="x_0_24" index="23" value="1.00000"/>
  <variable name="x_0_25" index="24" value="1.00000"/>
  <variable name="x_0_26" index="25" value="1.00000"/>
  <variable name="x_0_27" index="26" value="1.00000"/>
  <variable name="x_1_0" index="28" value="1.00000"/>
  <variable name="x_2_0" index="56" value="1.00000"/>
  <variable name="x_3_5" index="88" value="1.00000"/>
  <variable name="x_4_18" index="129" value="1.00000"/>
  <variable name="x_5_0" index="140" value="1.00000"/>
  <variable name="x_6_0" index="168" value="1.00000"/>
  <variable name="x_7_12" index="207" value="1.00000"/>
  <variable name="x_8_13" index="236" value="1.00000"/>
  <variable name="x_9_0" index="252" value="1.00000"/>
  <variable name="x_10_8" index="288" value="1.00000"/>
  <variable name="x_11_17" index="324" value="1.00000"/>
  <variable name="x_12_0" index="336" value="1.00000"/>
  <variable name="x_13_0" index="364" value="1.00000"/>
  <variable name="x_14_16" index="407" value="1.00000"/>
  <variable name="x_15_0" index="420" value="1.00000"/>
  <variable name="x_16_0" index="448" value="1.00000"/>
  <variable name="x_17_23" index="498" value="1.00000"/>
  <variable name="x_18_0" index="504" value="1.00000"/>
  <variable name="x_19_1" index="533" value="1.00000"/>
  <variable name="x_20_28" index="587" value="1.00000"/>
  <variable name="x_21_0" index="588" value="1.00000"/>
  <variable name="x_22_0" index="616" value="1.00000"/>
  <variable name="x_23_0" index="644" value="1.00000"/>
  <variable name="x_24_3" index="675" value="1.00000"/>
  <variable name="x_25_0" index="700" value="1.00000"/>
  <variable name="x_26_7" index="735" value="1.00000"/>
  <variable name="x_27_6" index="762" value="1.00000"/>
  <variable name="x_28_0" index="784" value="1.00000"/>
  <variable name="u_1" index="812" value="35.00000"/>
  <variable name="u_2" index="813" value="35.00000"/>
  <variable name="u_3" index="814" value="28.00000"/>
  <variable name="u_4" index="815" value="9.00000"/>
  <variable name="u_5" index="816" value="35.00000"/>
  <variable name="u_6" index="817" value="35.00000"/>
  <variable name="u_7" index="818" value="26.00000"/>
  <variable name="u_8" index="819" value="17.00000"/>
  <variable name="u_9" index="820" value="30.00000"/>
  <variable name="u_10" index="821" value="4.00000"/>
  <variable name="u_11" index="822" value="23.00000"/>
  <variable name="u_12" index="823" value="29.00000"/>
  <variable name="u_13" index="824" value="34.00000"/>
  <variable name="u_14" index="825" value="12.00000"/>
  <variable name="u_15" index="826" value="20.00000"/>
  <variable name="u_16" index="827" value="32.00000"/>
  <variable name="u_17" index="828" value="33.00000"/>
  <variable name="u_18" index="829" value="35.00000"/>
  <variable name="u_19" index="830" value="18.00000"/>
  <variable name="u_20" index="831" value="13.00000"/>
  <variable name="u_21" index="832" value="35.00000"/>
  <variable name="u_22" index="833" value="29.00000"/>
  <variable name="u_23" index="834" value="35.00000"/>
  <variable name="u_24" index="835" value="6.00000"/>
  <variable name="u_25" index="836" value="35.00000"/>
  <variable name="u_26" index="837" value="1.00000"/>
  <variable name="u_27" index="838" value="5.00000"/>
  <variable name="u_28" index="839" value="30.00000"/>
 </variables>
</CPLEXSolution>
